StudentsNr = 10;
InstructorsNr = 9;
DaysNr = 2;
SlotsPerDay = 20;
AvailabilitySlotsLenght = 20;
RoomNr = 1;
ProgrammNr = 1;
DegreeNr = 2;
RolesNr = 1;
CoursesNr = 10;
InstructorsProgramm = [{1}, {1}, {1}, {1}, {1}, {1}, {1}, {1}, {1}];
InstructorRolesPerProgramm = [|{1, 2, 3, 6, 8}|];
InstructorsAvailability = [|1, 0, |0, 1, |0, 1, |1, 1, |0, 1, |1, 1, |1, 0, |1, 1, |0, 1|];
StudentsProgramm = [1, 1, 1, 1, 1, 1, 1, 1, 1, 1];
StudentsDegree = [2, 1, 1, 1, 1, 2, 1, 2, 2, 2];
StudentsSupervisorId = [8, 1, 6, 3, 3, 2, 5, 1, 5, 8];
StudentsCourseIds = [{1, 2, 3, 4, 5, 6, 7, 8, 9, 10}, {1, 2, 3, 4, 5, 6, 7, 8, 9, 10}, {1, 2, 3, 4, 5, 6, 7, 8, 9, 10}, {1, 2, 3, 4, 5, 6, 7, 8, 9, 10}, {1, 2, 3, 4, 5, 6, 7, 8, 9, 10}, {1, 2, 3, 4, 5, 6, 7, 8, 9, 10}, {1, 2, 3, 4, 5, 6, 7, 8, 9, 10}, {1, 2, 3, 4, 5, 6, 7, 8, 9, 10}, {1, 2, 3, 4, 5, 6, 7, 8, 9, 10}, {1, 2, 3, 4, 5, 6, 7, 8, 9, 10}];
StudentsAvailability = [|0, 0, |1, 1, |0, 1, |0, 1, |0, 1, |0, 1, |0, 0, |1, 1, |0, 0, |1, 1|];
TheoryticalMinCard = [0, 0, 0, 0, 0, 0, 0, 0, 0, 0];
CoursesInstructorIds = [{2, 5}, {3, 8}, {1, 2, 4, 5}, {3, 6}, {3, 5, 8}, {1, 5, 7, 8, 9}, {1}, {2, 9}, {3, 6, 7}, {7, 8, 9}];
RolesDemands = [5];
RolesContinuity = [];
ExamLen = [1, 1, 1, 1, 1, 1, 1, 1, 1, 1];
LunchTsMinLen = 1;
LunchStarts = [6..11, 28..31];
SupervisorAvailable = 0;
OptimalLunchLenght = [0, 1];
OptimalStartTs = [1, 0];
OptimalFinishTs = [2, 20];
MinimizeRooms = 400;
RolesSoftContinuity = [|1|0|];
SameDegreeInRoom = 10;
Mergeability = 0;
